[[35, 19, 53, 14, 59, 11, 66, 65, 38, 10, 31, 58, 72, 39, 12, 40, 32, 9, 25, 55, 18, 50, 44, 3, 24, 49], [16, 33, 63, 23, 56, 41, 43, 42, 64, 22, 73, 62, 28, 61, 74, 21, 47, 36, 69, 71, 60, 70, 20], [37, 5, 15, 57, 13, 54, 52, 27, 45, 29, 48, 30, 2, 68, 6, 51, 17, 26, 76, 75, 4, 67, 34, 46, 8, 7]]